
  32    4
  10   10   10   10

   0   0   0   0   0  11 2 4 5 6 10 11 14 15 16 30 31 
   6   1   1   0   1   4 27 26 13 3 
   8   5   0   1   5   4 24 19 18 7 
   8   6   3   0   5   5 26 22 19 12 9 
   4   3   0   5   2   2 27 8 
   5   4   0   8   3   6 29 27 26 22 20 17 
   8   0   5   4   9   4 25 23 22 12 
   3   3   0   4   4   5 29 24 21 20 18 
   8   3   5   0   7   4 28 23 20 17 
   5   0   5   3   5   4 28 23 21 20 
   9   6   4   0   5   3 25 21 20 
   5   4   4   4   0   2 20 17 
   7   2   4   0   2   2 24 23 
   5   2   0   1   1   2 24 23 
   4   3   2   4   0   2 24 20 
   2   3   0   4   3   2 22 20 
   7   7   2   2   0   1 21 
   7   4   3   0   3   1 22 
   5   4   3   5   0   1 20 
   4   5   5   2   0   1 32
   7   5   3   0   3   1 32
   5   5   5   0   2   1 32
   2   4   0   4   7   1 32
   4   0   7   6   3   1 32
   2   5   4   0   4   1 32
   2   6   4   0   4   1 32
  10   0   4   5   6   1 32
  10   0   5   4   4   1 32
   7   7   6   0   3   1 32
   1   2   0   3   5   1 32
   6   1   4   7   0   1 32
   0   0   0   0   0   0 
